
Gurobi 10.0.1 (linux64) logging started Sun Nov 26 15:37:30 2023

Set parameter LogFile to value "ArtificialInstance/ExperimentV2/S2T5K3/BaRo/gurobi1.txt"
Gurobi Optimizer version 10.0.1 build v10.0.1rc0 (linux64)

CPU model: AMD EPYC 7H12 64-Core Processor, instruction set [SSE2|AVX|AVX2]
Thread count: 128 physical cores, 128 logical processors, using up to 32 threads

Academic license 656792 - for non-commercial use only - registered to b.___@student.vu.nl
Optimize a model with 3942 rows, 6001 columns and 20802 nonzeros
Model fingerprint: 0x529d40ea
Variable types: 1 continuous, 6000 integer (6000 binary)
Coefficient statistics:
  Matrix range     [1e+00, 4e+01]
  Objective range  [1e+00, 2e+01]
  Bounds range     [1e+00, 1e+00]
  RHS range        [1e+00, 1e+00]
Found heuristic solution: objective 680.0612643
Presolve time: 0.03s
Presolved: 3942 rows, 6001 columns, 20802 nonzeros
Variable types: 1 continuous, 6000 integer (6000 binary)

Root relaxation: objective 5.341862e+01, 4719 iterations, 0.28 seconds (0.23 work units)

    Nodes    |    Current Node    |     Objective Bounds      |     Work
 Expl Unexpl |  Obj  Depth IntInf | Incumbent    BestBd   Gap | It/Node Time

     0     0   53.41862    0  862  680.06126   53.41862  92.1%     -    0s
H    0     0                     398.4809336   53.41862  86.6%     -    0s
H    0     0                     102.3826643   53.41862  47.8%     -    0s
     0     0   61.83682    0 1016  102.38266   61.83682  39.6%     -    0s
H    0     0                      95.2982005   61.83682  35.1%     -    0s
H    0     0                      92.7034072   61.83682  33.3%     -    0s
     0     0   66.58902    0 1063   92.70341   66.58902  28.2%     -    0s
     0     0   66.82931    0 1093   92.70341   66.82931  27.9%     -    1s
     0     0   66.82931    0 1105   92.70341   66.82931  27.9%     -    1s
     0     0   68.97521    0 1143   92.70341   68.97521  25.6%     -    1s
H    0     0                      89.4930778   68.97521  22.9%     -    1s
     0     0   69.08567    0 1169   89.49308   69.08567  22.8%     -    1s
     0     0   69.08903    0 1165   89.49308   69.08903  22.8%     -    1s
     0     0   70.08459    0 1126   89.49308   70.08459  21.7%     -    1s
     0     0   70.24935    0 1177   89.49308   70.24935  21.5%     -    1s
     0     0   70.26340    0 1133   89.49308   70.26340  21.5%     -    1s
     0     0   70.26424    0 1133   89.49308   70.26424  21.5%     -    1s
     0     0   70.30253    0 1110   89.49308   70.30253  21.4%     -    1s
     0     0   70.30253    0 1106   89.49308   70.30253  21.4%     -    1s
     0     0   70.77703    0 1252   89.49308   70.77703  20.9%     -    2s
     0     0   70.83358    0 1230   89.49308   70.83358  20.9%     -    2s
     0     0   70.84004    0 1236   89.49308   70.84004  20.8%     -    2s
     0     0   70.84004    0 1237   89.49308   70.84004  20.8%     -    2s
     0     0   71.82190    0 1275   89.49308   71.82190  19.7%     -    2s
     0     0   71.86443    0 1270   89.49308   71.86443  19.7%     -    2s
     0     0   71.87278    0 1265   89.49308   71.87278  19.7%     -    2s
     0     0   71.87278    0 1267   89.49308   71.87278  19.7%     -    2s
     0     0   72.45387    0 1308   89.49308   72.45387  19.0%     -    2s
     0     0   72.55586    0 1285   89.49308   72.55586  18.9%     -    2s
     0     0   72.55607    0 1266   89.49308   72.55607  18.9%     -    2s
     0     0   72.66042    0 1284   89.49308   72.66042  18.8%     -    3s
     0     0   72.67923    0 1247   89.49308   72.67923  18.8%     -    3s
     0     0   72.71516    0 1230   89.49308   72.71516  18.7%     -    3s
     0     0   72.74542    0 1213   89.49308   72.74542  18.7%     -    3s
     0     0   72.74780    0 1217   89.49308   72.74780  18.7%     -    3s
     0     0   72.75316    0 1292   89.49308   72.75316  18.7%     -    3s
     0     0   72.88380    0 1269   89.49308   72.88380  18.6%     -    3s
     0     0   72.88496    0 1237   89.49308   72.88496  18.6%     -    3s
     0     0   72.97442    0 1216   89.49308   72.97442  18.5%     -    3s
     0     0   72.98647    0 1218   89.49308   72.98647  18.4%     -    3s
     0     0   72.98679    0 1245   89.49308   72.98679  18.4%     -    3s
     0     0   73.07990    0 1238   89.49308   73.07990  18.3%     -    3s
     0     0   73.07991    0 1280   89.49308   73.07991  18.3%     -    3s
     0     0   73.13343    0 1216   89.49308   73.13343  18.3%     -    4s
     0     0   73.13343    0 1109   89.49308   73.13343  18.3%     -    4s
     0     2   73.13343    0 1109   89.49308   73.13343  18.3%     -    5s
H  127   158                      88.7700966   76.56819  13.7%   817    6s
H 1196   615                      87.3783549   76.56819  12.4%   359   10s
H 1245   615                      87.1059277   76.56819  12.1%   356   10s
  5275    66     cutoff   11        87.10593   84.61875  2.86%   266   15s

Cutting planes:
  Gomory: 13
  Zero half: 402
  RLT: 275

Explored 5725 nodes (1479284 simplex iterations) in 15.11 seconds (13.87 work units)
Thread count was 32 (of 128 available processors)

Solution count 9: 87.1059 87.3784 88.7701 ... 680.061

Optimal solution found (tolerance 1.00e-04)
Best objective 8.710592771568e+01, best bound 8.710592771568e+01, gap 0.0000%
